p cnf 468 354
c p distribution  0.875 0.125
c p distribution  0.875 0.125
c p distribution  0.875 0.125
c p distribution  0.875 0.125
c p distribution  0.875 0.125
c p distribution  0.875 0.125
c p distribution  0.875 0.125
c p distribution  0.875 0.125
c p distribution  0.875 0.125
c p distribution  0.875 0.125
c p distribution  0.875 0.125
c p distribution  0.875 0.125
c p distribution  0.875 0.125
c p distribution  0.875 0.125
c p distribution  0.875 0.125
c p distribution  0.875 0.125
c p distribution  0.875 0.125
c p distribution  0.875 0.125
c p distribution  0.875 0.125
c p distribution  0.875 0.125
c p distribution  0.875 0.125
c p distribution  0.875 0.125
c p distribution  0.875 0.125
c p distribution  0.875 0.125
c p distribution  0.875 0.125
c p distribution  0.875 0.125
c p distribution  0.875 0.125
c p distribution  0.875 0.125
c p distribution  0.875 0.125
c p distribution  0.875 0.125
c p distribution  0.875 0.125
c p distribution  0.875 0.125
c p distribution  0.875 0.125
c p distribution  0.875 0.125
c p distribution  0.875 0.125
c p distribution  0.875 0.125
c p distribution  0.875 0.125
c p distribution  0.875 0.125
c p distribution  0.875 0.125
c p distribution  0.875 0.125
c p distribution  0.875 0.125
c p distribution  0.875 0.125
c p distribution  0.875 0.125
c p distribution  0.875 0.125
c p distribution  0.875 0.125
c p distribution  0.875 0.125
c p distribution  0.875 0.125
c p distribution  0.875 0.125
c p distribution  0.875 0.125
c p distribution  0.875 0.125
c p distribution  0.875 0.125
c p distribution  0.875 0.125
c p distribution  0.875 0.125
c p distribution  0.875 0.125
c p distribution  0.875 0.125
c p distribution  0.875 0.125
c p distribution  0.875 0.125
c p distribution  0.875 0.125
c p distribution  0.875 0.125
c p distribution  0.875 0.125
c p distribution  0.875 0.125
c p distribution  0.875 0.125
c p distribution  0.875 0.125
c p distribution  0.875 0.125
c p distribution  0.875 0.125
c p distribution  0.875 0.125
c p distribution  0.875 0.125
c p distribution  0.875 0.125
c p distribution  0.875 0.125
c p distribution  0.875 0.125
c p distribution  0.875 0.125
c p distribution  0.875 0.125
c p distribution  0.875 0.125
c p distribution  0.875 0.125
c p distribution  0.875 0.125
c p distribution  0.875 0.125
c p distribution  0.875 0.125
c p distribution  0.875 0.125
c p distribution  0.875 0.125
c p distribution  0.875 0.125
c p distribution  0.875 0.125
c p distribution  0.875 0.125
c p distribution  0.875 0.125
c p distribution  0.875 0.125
c p distribution  0.875 0.125
c p distribution  0.875 0.125
c p distribution  0.875 0.125
c p distribution  0.875 0.125
c p distribution  0.875 0.125
c p distribution  0.875 0.125
c p distribution  0.875 0.125
c p distribution  0.875 0.125
c p distribution  0.875 0.125
c p distribution  0.875 0.125
c p distribution  0.875 0.125
c p distribution  0.875 0.125
c p distribution  0.875 0.125
c p distribution  0.875 0.125
c p distribution  0.875 0.125
c p distribution  0.875 0.125
c p distribution  0.875 0.125
c p distribution  0.875 0.125
c p distribution  0.875 0.125
c p distribution  0.875 0.125
c p distribution  0.875 0.125
c p distribution  0.875 0.125
c p distribution  0.875 0.125
c p distribution  0.875 0.125
c p distribution  0.875 0.125
c p distribution  0.875 0.125
c p distribution  0.875 0.125
c p distribution  0.875 0.125
c p distribution  0.875 0.125
c p distribution  0.875 0.125
c p distribution  0.875 0.125
c p distribution  0.875 0.125
c p distribution  0.875 0.125
c p distribution  0.875 0.125
c p distribution  0.875 0.125
c p distribution  0.875 0.125
c p distribution  0.875 0.125
c p distribution  0.875 0.125
c p distribution  0.875 0.125
c p distribution  0.875 0.125
c p distribution  0.875 0.125
c p distribution  0.875 0.125
c p distribution  0.875 0.125
c p distribution  0.875 0.125
c p distribution  0.875 0.125
c p distribution  0.875 0.125
c p distribution  0.875 0.125
c p distribution  0.875 0.125
c p distribution  0.875 0.125
c p distribution  0.875 0.125
c p distribution  0.875 0.125
c p distribution  0.875 0.125
c p distribution  0.875 0.125
c p distribution  0.875 0.125
c p distribution  0.875 0.125
c p distribution  0.875 0.125
c p distribution  0.875 0.125
c p distribution  0.875 0.125
c p distribution  0.875 0.125
c p distribution  0.875 0.125
c p distribution  0.875 0.125
c p distribution  0.875 0.125
c p distribution  0.875 0.125
c p distribution  0.875 0.125
c p distribution  0.875 0.125
c p distribution  0.875 0.125
c p distribution  0.875 0.125
c p distribution  0.875 0.125
c p distribution  0.875 0.125
c p distribution  0.875 0.125
c p distribution  0.875 0.125
c p distribution  0.875 0.125
c p distribution  0.875 0.125
c p distribution  0.875 0.125
c p distribution  0.875 0.125
c p distribution  0.875 0.125
c p distribution  0.875 0.125
c p distribution  0.875 0.125
c p distribution  0.875 0.125
c p distribution  0.875 0.125
c p distribution  0.875 0.125
c p distribution  0.875 0.125
c p distribution  0.875 0.125
c p distribution  0.875 0.125
c p distribution  0.875 0.125
c p distribution  0.875 0.125
c p distribution  0.875 0.125
c p distribution  0.875 0.125
c p distribution  0.875 0.125
c p distribution  0.875 0.125
c p distribution  0.875 0.125
c p distribution  0.875 0.125
465 0
-422 0
411 -416 -1 0
416 -411 -1 0
462 -378 -3 0
378 -462 -3 0
359 -368 -5 0
368 -359 -5 0
392 -438 -7 0
438 -392 -7 0
410 -450 -9 0
450 -410 -9 0
451 -374 -11 0
374 -451 -11 0
424 -456 -13 0
456 -424 -13 0
429 -401 -15 0
401 -429 -15 0
387 -457 -17 0
457 -387 -17 0
421 -380 -19 0
380 -421 -19 0
361 -451 -21 0
451 -361 -21 0
414 -364 -23 0
364 -414 -23 0
414 -364 -25 0
364 -414 -25 0
371 -369 -27 0
369 -371 -27 0
466 -358 -29 0
358 -466 -29 0
426 -385 -31 0
385 -426 -31 0
426 -445 -33 0
445 -426 -33 0
466 -425 -35 0
425 -466 -35 0
362 -408 -37 0
408 -362 -37 0
410 -448 -39 0
448 -410 -39 0
384 -407 -41 0
407 -384 -41 0
435 -383 -43 0
383 -435 -43 0
385 -403 -45 0
403 -385 -45 0
377 -373 -47 0
373 -377 -47 0
387 -449 -49 0
449 -387 -49 0
466 -414 -51 0
414 -466 -51 0
450 -396 -53 0
396 -450 -53 0
397 -393 -55 0
393 -397 -55 0
408 -396 -57 0
396 -408 -57 0
390 -419 -59 0
419 -390 -59 0
434 -447 -61 0
447 -434 -61 0
377 -436 -63 0
436 -377 -63 0
388 -448 -65 0
448 -388 -65 0
392 -432 -67 0
432 -392 -67 0
429 -401 -69 0
401 -429 -69 0
429 -415 -71 0
415 -429 -71 0
368 -414 -73 0
414 -368 -73 0
398 -437 -75 0
437 -398 -75 0
373 -372 -77 0
372 -373 -77 0
409 -387 -79 0
387 -409 -79 0
447 -354 -81 0
354 -447 -81 0
398 -369 -83 0
369 -398 -83 0
429 -422 -85 0
422 -429 -85 0
374 -451 -87 0
451 -374 -87 0
397 -375 -89 0
375 -397 -89 0
429 -401 -91 0
401 -429 -91 0
408 -396 -93 0
396 -408 -93 0
402 -384 -95 0
384 -402 -95 0
448 -388 -97 0
388 -448 -97 0
431 -433 -99 0
433 -431 -99 0
460 -366 -101 0
366 -460 -101 0
384 -431 -103 0
431 -384 -103 0
468 -368 -105 0
368 -468 -105 0
424 -375 -107 0
375 -424 -107 0
409 -405 -109 0
405 -409 -109 0
463 -414 -111 0
414 -463 -111 0
371 -447 -113 0
447 -371 -113 0
403 -353 -115 0
353 -403 -115 0
421 -380 -117 0
380 -421 -117 0
410 -465 -119 0
465 -410 -119 0
376 -445 -121 0
445 -376 -121 0
385 -426 -123 0
426 -385 -123 0
410 -465 -125 0
465 -410 -125 0
433 -431 -127 0
431 -433 -127 0
436 -420 -129 0
420 -436 -129 0
362 -408 -131 0
408 -362 -131 0
427 -420 -133 0
420 -427 -133 0
413 -441 -135 0
441 -413 -135 0
398 -417 -137 0
417 -398 -137 0
357 -367 -139 0
367 -357 -139 0
397 -402 -141 0
402 -397 -141 0
467 -434 -143 0
434 -467 -143 0
461 -459 -145 0
459 -461 -145 0
449 -387 -147 0
387 -449 -147 0
356 -400 -149 0
400 -356 -149 0
440 -372 -151 0
372 -440 -151 0
468 -359 -153 0
359 -468 -153 0
441 -364 -155 0
364 -441 -155 0
421 -406 -157 0
406 -421 -157 0
405 -362 -159 0
362 -405 -159 0
417 -403 -161 0
403 -417 -161 0
387 -449 -163 0
449 -387 -163 0
414 -395 -165 0
395 -414 -165 0
385 -367 -167 0
367 -385 -167 0
395 -411 -169 0
411 -395 -169 0
374 -414 -171 0
414 -374 -171 0
382 -455 -173 0
455 -382 -173 0
432 -395 -175 0
395 -432 -175 0
414 -392 -177 0
392 -414 -177 0
447 -389 -179 0
389 -447 -179 0
423 -419 -181 0
419 -423 -181 0
402 -384 -183 0
384 -402 -183 0
451 -365 -185 0
365 -451 -185 0
443 -414 -187 0
414 -443 -187 0
392 -382 -189 0
382 -392 -189 0
409 -455 -191 0
455 -409 -191 0
442 -435 -193 0
435 -442 -193 0
438 -392 -195 0
392 -438 -195 0
461 -462 -197 0
462 -461 -197 0
430 -447 -199 0
447 -430 -199 0
379 -397 -201 0
397 -379 -201 0
424 -452 -203 0
452 -424 -203 0
387 -457 -205 0
457 -387 -205 0
384 -363 -207 0
363 -384 -207 0
418 -360 -209 0
360 -418 -209 0
358 -361 -211 0
361 -358 -211 0
380 -411 -213 0
411 -380 -213 0
412 -465 -215 0
465 -412 -215 0
466 -399 -217 0
399 -466 -217 0
386 -454 -219 0
454 -386 -219 0
384 -354 -221 0
354 -384 -221 0
393 -355 -223 0
355 -393 -223 0
366 -466 -225 0
466 -366 -225 0
362 -394 -227 0
394 -362 -227 0
412 -465 -229 0
465 -412 -229 0
378 -462 -231 0
462 -378 -231 0
373 -442 -233 0
442 -373 -233 0
427 -420 -235 0
420 -427 -235 0
386 -370 -237 0
370 -386 -237 0
382 -394 -239 0
394 -382 -239 0
384 -442 -241 0
442 -384 -241 0
387 -457 -243 0
457 -387 -243 0
400 -389 -245 0
389 -400 -245 0
392 -461 -247 0
461 -392 -247 0
404 -406 -249 0
406 -404 -249 0
455 -387 -251 0
387 -455 -251 0
439 -436 -253 0
436 -439 -253 0
402 -384 -255 0
384 -402 -255 0
356 -444 -257 0
444 -356 -257 0
360 -396 -259 0
396 -360 -259 0
362 -453 -261 0
453 -362 -261 0
371 -465 -263 0
465 -371 -263 0
384 -458 -265 0
458 -384 -265 0
404 -406 -267 0
406 -404 -267 0
362 -396 -269 0
396 -362 -269 0
466 -415 -271 0
415 -466 -271 0
362 -408 -273 0
408 -362 -273 0
410 -369 -275 0
369 -410 -275 0
375 -452 -277 0
452 -375 -277 0
393 -404 -279 0
404 -393 -279 0
364 -443 -281 0
443 -364 -281 0
361 -422 -283 0
422 -361 -283 0
387 -428 -285 0
428 -387 -285 0
358 -422 -287 0
422 -358 -287 0
438 -356 -289 0
356 -438 -289 0
361 -358 -291 0
358 -361 -291 0
465 -360 -293 0
360 -465 -293 0
385 -353 -295 0
353 -385 -295 0
357 -367 -297 0
367 -357 -297 0
394 -387 -299 0
387 -394 -299 0
384 -354 -301 0
354 -384 -301 0
381 -373 -303 0
373 -381 -303 0
464 -456 -305 0
456 -464 -305 0
402 -379 -307 0
379 -402 -307 0
366 -446 -309 0
446 -366 -309 0
384 -417 -311 0
417 -384 -311 0
384 -435 -313 0
435 -384 -313 0
410 -465 -315 0
465 -410 -315 0
414 -456 -317 0
456 -414 -317 0
385 -357 -319 0
357 -385 -319 0
397 -355 -321 0
355 -397 -321 0
468 -359 -323 0
359 -468 -323 0
374 -365 -325 0
365 -374 -325 0
433 -407 -327 0
407 -433 -327 0
410 -371 -329 0
371 -410 -329 0
412 -465 -331 0
465 -412 -331 0
415 -365 -333 0
365 -415 -333 0
434 -396 -335 0
396 -434 -335 0
385 -353 -337 0
353 -385 -337 0
382 -405 -339 0
405 -382 -339 0
402 -379 -341 0
379 -402 -341 0
384 -402 -343 0
402 -384 -343 0
399 -397 -345 0
397 -399 -345 0
402 -458 -347 0
458 -402 -347 0
425 -382 -349 0
382 -425 -349 0
391 -378 -351 0
378 -391 -351 0

